83
300
238	1
235	2
231	1
230	1
228	1
227	1
224	1
222	1
221	1
218	1
212	1
211	1
209	2
207	1
206	1
204	1
203	3
202	1
197	1
193	1
187	1
181	1
180	1
178	1
177	1
170	1
169	1
166	2
165	3
163	1
162	1
161	1
158	1
157	1
152	1
144	1
143	1
142	1
133	2
132	1
128	2
127	1
126	1
125	2
124	1
123	1
122	1
117	1
112	1
109	1
108	1
107	2
106	1
104	1
103	3
97	1
96	1
95	1
93	1
92	2
89	1
88	1
80	1
76	1
75	1
73	1
72	1
70	2
66	1
64	1
63	1
57	1
55	1
54	1
51	1
50	1
48	1
45	1
44	1
43	1
42	1
33	2
30	2
